Code/People_data.dzn
numPeople = [26,26,26,26,26,30,30,30,30,26,29,29,29,29,32,32,46,35
,35,41,42,42,44,35,35,35,35,41,38,52,52,59,44,44,54,51
,51,51,51,51,54,65,62,74,83,93,84,88,85,95,95,105,105,108
,108,108,105,105,105,115,125,125,125,125,125,124,124,124,124,119,119,127
,135,154,154,154,146,146,144,153,152,152,152,152,161,161,164,164,164,164
,164,164,164,164,164,165,165,154,154,162,162,162,162,162,162,162,162,162
,163,162,162,162,167,164,167,164,164,164,158,160,160,155,158,158,158,154
,156,156,156,156,156,156,156,163,163,163,162,147,161,157,157,157,148,162
,148,148,135,139,136,125,125,125,125,117,122,121,109,109,109,109,98,98
,98,89,89,89,89,89,89,89,89,89,89,89,89,89,89,89,89,89
,89,89,89,89,89,89,89,89,89,89,89,89,89,89,89,89,89,89
,89,89,91,91,91,91,91,40,40,40,40,40,40,40,40,40,40,40
,25,25,25,25,25,25,25,25,25,25,25,25,25,25,25,25,25,25
,25,25,25,25,25,25,25,25,25,25,25,25,25,25,25,25,25,25
,25,25,25,25,25,25,25,25,25,25,25,25,25,25,25,25,25,25
,25,25,25,25,25,25,25,25,25,25,25,25,25,25,25,25,25,25
,25,25,25,25,25,25,25,25,25,25,25,25,25,25,25,25,25,25
,25,25,25,25,25,25,25,25,25,25,25,25,25,25,25,25,25,25
,25,25,25,25,25,25,25,25,25,25,25,25,25,25,25,25,25,25
,25,25,25,25,25,25,25,25,25,25,25,25,25,25,25,25,25,25
,25,25,25,25,25,25,25,25,25,25];

numPhysicalWorkers = [14.5,14.5,14.5,14.5,14.5,14.5,14.5,14.5,14.5,14.5,16.5,16.5,16.5,16.5
,18.5,18.5,20.5,20.5,20.5,20.5,20.5,20.5,20.5,20.5,20.5,20.5,20.5,20.5
,20.5,20.5,20.5,23.5,23.5,22.5,29.0,28.0,28.0,28.0,28.0,28.0,28.0,33.0,
33.0,37.5,37.5,38.0,37.0,37.0,37.0,40.0,40.0,41.0,41.0,41.0,41.0,41.0,
41.0,41.0,41.0,45.0,46.5,46.5,46.5,46.5,46.5,46.5,45.5,45.5,45.5,45.5
,43.5,44.0,44.0,53.5,53.5,53.5,53.5,53.5,53.5,56.0,56.0,55.0,55.0,55.0,
58.5,58.5,58.5,58.5,58.5,58.5,58.5,58.5,58.5,58.5,58.5,58.5,58.5,58.5
,54.0,56.5,56.5,56.5,56.5,56.5,56.5,56.5,56.5,56.5,56.5,56.5,56.5,56.5
,57.5,57.5,57.5,57.5,57.5,57.5,57.5,54.0,54.0,54.0,53.0,53.0,53.0,53.0,
51.5,51.5,51.5,51.5,51.5,51.5,55.0,50.5,50.5,50.5,50.5,50.5,47.0,47.0,
47.0,47.0,47.0,46.0,46.0,46.0,46.0,42.0,42.0,39.0,33.5,33.5,33.5,33.5
,32.0,32.0,31.0,28.0,28.0,28.0,28.0,28.0,28.0,28.0,21.0,21.0,21.0,21.0,
21.0,21.0,21.0,21.0,21.0,21.0,21.0,21.0,21.0,21.0,21.0,21.0,21.0,21.0,
21.0,21.0,21.0,21.0,21.0,21.0,21.0,21.0,21.0,21.0,21.0,21.0,21.0,21.0,
21.0,21.0,21.0,21.0,21.5,21.5,21.5,21.5,21.5,21.5,14.5,14.5,14.5,14.5
,14.5,14.5,14.5,14.5,14.5,14.5,14.5,13.0,13.0,13.0,13.0,13.0,13.0,13.0,
13.0,13.0,13.0,13.0,13.0,13.0,13.0,13.0,13.0,13.0,13.0,13.0,13.0,13.0,
13.0,13.0,13.0,13.0,13.0,13.0,13.0,13.0,13.0,13.0,13.0,13.0,13.0,13.0,
13.0,13.0,13.0,13.0,13.0,13.0,13.0,13.0,13.0,13.0,13.0,13.0,13.0,13.0,
13.0,13.0,13.0,13.0,13.0,13.0,13.0,13.0,13.0,13.0,13.0,13.0,13.0,13.0,
13.0,13.0,13.0,13.0,13.0,13.0,13.0,13.0,13.0,13.0,13.0,13.0,13.0,13.0,
13.0,13.0,13.0,13.0,13.0,13.0,13.0,13.0,13.0,13.0,13.0,13.0,13.0,13.0,
13.0,13.0,13.0,13.0,13.0,13.0,13.0,13.0,13.0,13.0,13.0,13.0,13.0,13.0,
13.0,13.0,13.0,13.0,13.0,13.0,13.0,13.0,13.0,13.0,13.0,13.0,13.0,13.0,
13.0,13.0,13.0,13.0,13.0,13.0,13.0,13.0,13.0,13.0,13.0,13.0,13.0,13.0,
13.0,13.0,13.0,13.0,13.0,13.0,13.0,13.0,13.0,13.0,13.0,13.0,13.0,13.0,
13.0,13.0,13.0,13.0,13.0,13.0];

numMen = [23,23,23,23,23,27,27,27,27,27,25,25,25,25,27,27,41,41
,30,36,42,36,43,37,30,30,30,36,36,46,46,50,50,36,42,41
,38,38,38,38,40,47,47,52,60,71,71,65,65,72,72,81,81,84
,84,84,84,81,81,86,96,96,96,96,96,96,95,95,95,100,94,101
,108,126,126,126,126,119,119,128,128,127,127,127,136,135,137,137,137,137
,137,137,137,137,137,138,138,138,131,136,136,136,136,136,136,136,136,136
,139,139,136,136,140,140,140,140,137,137,137,132,132,132,132,132,132,132
,128,128,128,128,128,128,132,134,134,134,134,136,145,133,129,135,129,135
,135,121,121,112,112,109,100,100,100,100,100,100,99,90,90,90,90,80
,80,80,75,75,75,75,75,75,75,75,75,75,75,75,75,75,75,75
,75,75,75,75,75,75,75,75,75,75,75,75,75,75,75,75,75,75
,75,75,76,76,76,76,76,76,30,30,30,30,30,30,30,30,30,30
,30,19,19,19,19,19,19,19,19,19,19,19,19,19,19,19,19,19
,19,19,19,19,19,19,19,19,19,19,19,19,19,19,19,19,19,19
,19,19,19,19,19,19,19,19,19,19,19,19,19,19,19,19,19,19
,19,19,19,19,19,19,19,19,19,19,19,19,19,19,19,19,19,19
,19,19,19,19,19,19,19,19,19,19,19,19,19,19,19,19,19,19
,19,19,19,19,19,19,19,19,19,19,19,19,19,19,19,19,19,19
,19,19,19,19,19,19,19,19,19,19,19,19,19,19,19,19,19,19
,19,19,19,19,19,19,19,19,19,19,19,19,19,19,19,19,19,19
,19,19,19,19,19,19,19,19,19,19];

numRefusals = [| 2,0,2,2,4,1,1,2 | 2,0,2,2,4,1,1,2 | 2,0,2,2,4,1,1,2 | 2,0,2,2,4,1,1,2 | 2,0,2,2,4,1,1,2 | 5,0,2,4,1,5,3,3 | 5,0,2,4,1,5,3,3 | 5,0,2,4,1,5,3,3 | 5,0,2,4,1,5,3,3 | 1,2,2,4,3,1,1,1 | 1,2,1,2,1,0,3,1 | 1,2,1,2,1,0,3,1 | 1,2,1,2,1,0,3,1 | 1,2,1,2,1,0,3,1 | 0,2,4,2,1,1,2,3 | 0,2,4,2,1,1,2,3 | 2,6,5,8,2,1,0,0 | 3,1,7,5,4,1,2,0 | 3,1,7,5,4,1,2,0 | 1,0,5,2,2,0,2,3 | 5,2,4,3,0,3,2,2 | 5,2,4,3,0,3,2,2 | 1,10,4,2,4,0,0,2 | 2,6,1,1,2,4,3,1 | 2,6,1,1,2,4,3,1 | 2,6,1,1,2,4,3,1 | 2,6,1,1,2,4,3,1 | 0,1,1,5,4,4,1,5 | 1,7,12,3,4,4,8,4 | 7,4,6,5,6,2,6,4 | 7,4,6,5,6,2,6,4 | 1,5,0,6,5,1,5,3 | 2,6,8,1,6,3,6,2 | 2,6,8,1,6,3,6,2 | 5,2,10,2,7,5,6,4 | 12,6,9,10,5,0,1,0 | 12,6,9,10,5,0,1,0 | 12,6,9,10,5,0,1,0 | 12,6,9,10,5,0,1,0 | 12,6,9,10,5,0,1,0 | 3,6,1,0,6,13,4,3 | 2,10,1,8,6,9,14,2 | 12,3,1,5,15,6,7,11 | 15,8,1,1,5,6,11,9 | 15,10,4,7,7,1,3,3 | 10,4,1,9,12,9,7,8 | 1,15,4,13,3,3,10,1 | 4,11,14,12,12,1,5,3 | 11,4,7,4,6,3,7,0 | 27,14,2,1,15,5,3,2 | 27,14,2,1,15,5,3,2 | 8,8,2,1,4,0,18,21 | 8,8,2,1,4,0,18,21 | 16,2,1,12,9,6,13,7 | 16,2,1,12,9,6,13,7 | 16,2,1,12,9,6,13,7 | 9,5,20,17,7,23,6,8 | 9,5,20,17,7,23,6,8 | 9,5,20,17,7,23,6,8 | 12,8,17,24,5,6,3,4 | 3,13,7,11,21,7,19,19 | 3,13,7,11,21,7,19,19 | 3,13,7,11,21,7,19,19 | 3,13,7,11,21,7,19,19 | 3,13,7,11,21,7,19,19 | 2,14,7,5,9,2,6,12 | 2,14,7,5,9,2,6,12 | 2,14,7,5,9,2,6,12 | 2,14,7,5,9,2,6,12 | 8,16,25,2,2,16,3,8 | 8,16,25,2,2,16,3,8 | 6,2,24,6,22,2,13,7 | 2,9,24,12,9,9,6,8 | 14,7,7,11,35,21,10,8 | 14,7,7,11,35,21,10,8 | 14,7,7,11,35,21,10,8 | 13,7,16,5,27,1,2,5 | 13,7,16,5,27,1,2,5 | 6,15,24,37,1,5,3,11 | 0,3,2,4,2,4,3,9 | 10,20,13,1,22,9,15,1 | 10,20,13,1,22,9,15,1 | 10,20,13,1,22,9,15,1 | 10,20,13,1,22,9,15,1 | 9,6,38,12,4,18,15,12 | 9,6,38,12,4,18,15,12 | 1,14,16,1,17,5,7,18 | 1,14,16,1,17,5,7,18 | 1,14,16,1,17,5,7,18 | 1,14,16,1,17,5,7,18 | 1,14,16,1,17,5,7,18 | 1,14,16,1,17,5,7,18 | 1,14,16,1,17,5,7,18 | 1,14,16,1,17,5,7,18 | 1,14,16,1,17,5,7,18 | 11,15,4,8,12,4,21,9 | 11,15,4,8,12,4,21,9 | 6,1,4,10,21,5,27,3 | 6,1,4,10,21,5,27,3 | 22,16,8,12,5,16,1,9 | 22,16,8,12,5,16,1,9 | 22,16,8,12,5,16,1,9 | 22,16,8,12,5,16,1,9 | 22,16,8,12,5,16,1,9 | 22,16,8,12,5,16,1,9 | 22,16,8,12,5,16,1,9 | 22,16,8,12,5,16,1,9 | 22,16,8,12,5,16,1,9 | 19,14,36,25,7,1,7,9 | 35,41,16,13,7,3,15,2 | 35,41,16,13,7,3,15,2 | 35,41,16,13,7,3,15,2 | 23,24,10,30,8,12,1,11 | 3,10,10,11,7,31,18,26 | 24,1,0,2,1,2,34,10 | 2,13,3,26,4,25,18,34 | 2,13,3,26,4,25,18,34 | 2,13,3,26,4,25,18,34 | 4,3,12,11,0,30,7,7 | 14,47,2,4,20,1,16,5 | 14,47,2,4,20,1,16,5 | 12,2,3,1,12,11,17,3 | 21,17,25,10,30,5,11,20 | 21,17,25,10,30,5,11,20 | 21,17,25,10,30,5,11,20 | 16,3,5,11,10,15,33,12 | 36,3,8,11,7,13,10,3 | 36,3,8,11,7,13,10,3 | 36,3,8,11,7,13,10,3 | 36,3,8,11,7,13,10,3 | 36,3,8,11,7,13,10,3 | 36,3,8,11,7,13,10,3 | 36,3,8,11,7,13,10,3 | 1,8,16,10,1,23,5,2 | 1,8,16,10,1,23,5,2 | 1,8,16,10,1,23,5,2 | 10,39,5,24,2,4,2,5 | 11,16,16,6,4,11,10,9 | 17,11,3,14,17,27,2,15 | 26,21,6,26,5,23,4,26 | 26,21,6,26,5,23,4,26 | 26,21,6,26,5,23,4,26 | 20,21,9,16,21,5,6,16 | 7,27,11,14,11,31,6,18 | 4,23,20,9,15,17,3,0 | 4,23,20,9,15,17,3,0 | 1,44,17,19,6,10,13,7 | 4,24,16,28,2,6,7,1 | 8,24,2,13,7,14,3,26 | 5,11,13,8,15,24,9,16 | 5,11,13,8,15,24,9,16 | 5,11,13,8,15,24,9,16 | 5,11,13,8,15,24,9,16 | 14,11,7,7,11,7,20,0 | 8,1,15,24,21,8,17,7 | 11,20,6,3,8,6,12,10 | 11,9,2,12,10,11,0,13 | 11,9,2,12,10,11,0,13 | 11,9,2,12,10,11,0,13 | 11,9,2,12,10,11,0,13 | 8,2,3,5,3,5,6,11 | 8,2,3,5,3,5,6,11 | 8,2,3,5,3,5,6,11 | 4,17,1,5,3,12,6,3 | 4,17,1,5,3,12,6,3 | 4,17,1,5,3,12,6,3 | 4,17,1,5,3,12,6,3 | 4,17,1,5,3,12,6,3 | 4,17,1,5,3,12,6,3 | 4,17,1,5,3,12,6,3 | 4,17,1,5,3,12,6,3 | 4,17,1,5,3,12,6,3 | 4,17,1,5,3,12,6,3 | 4,17,1,5,3,12,6,3 | 4,17,1,5,3,12,6,3 | 4,17,1,5,3,12,6,3 | 4,17,1,5,3,12,6,3 | 4,17,1,5,3,12,6,3 | 4,17,1,5,3,12,6,3 | 4,17,1,5,3,12,6,3 | 4,17,1,5,3,12,6,3 | 4,17,1,5,3,12,6,3 | 4,17,1,5,3,12,6,3 | 4,17,1,5,3,12,6,3 | 4,17,1,5,3,12,6,3 | 4,17,1,5,3,12,6,3 | 4,17,1,5,3,12,6,3 | 4,17,1,5,3,12,6,3 | 4,17,1,5,3,12,6,3 | 4,17,1,5,3,12,6,3 | 4,17,1,5,3,12,6,3 | 4,17,1,5,3,12,6,3 | 4,17,1,5,3,12,6,3 | 4,17,1,5,3,12,6,3 | 4,17,1,5,3,12,6,3 | 4,17,1,5,3,12,6,3 | 4,17,1,5,3,12,6,3 | 4,17,1,5,3,12,6,3 | 4,17,1,5,3,12,6,3 | 4,17,1,5,3,12,6,3 | 3,0,3,10,12,20,4,6 | 3,0,3,10,12,20,4,6 | 3,0,3,10,12,20,4,6 | 3,0,3,10,12,20,4,6 | 3,0,3,10,12,20,4,6 | 1,0,1,1,0,6,8,3 | 1,0,1,1,0,6,8,3 | 1,0,1,1,0,6,8,3 | 1,0,1,1,0,6,8,3 | 1,0,1,1,0,6,8,3 | 1,0,1,1,0,6,8,3 | 1,0,1,1,0,6,8,3 | 1,0,1,1,0,6,8,3 | 1,0,1,1,0,6,8,3 | 1,0,1,1,0,6,8,3 | 1,0,1,1,0,6,8,3 | 1,4,6,2,1,1,6,2 | 1,4,6,2,1,1,6,2 | 1,4,6,2,1,1,6,2 | 1,4,6,2,1,1,6,2 | 1,4,6,2,1,1,6,2 | 1,4,6,2,1,1,6,2 | 1,4,6,2,1,1,6,2 | 1,4,6,2,1,1,6,2 | 1,4,6,2,1,1,6,2 | 1,4,6,2,1,1,6,2 | 1,4,6,2,1,1,6,2 | 1,4,6,2,1,1,6,2 | 1,4,6,2,1,1,6,2 | 1,4,6,2,1,1,6,2 | 1,4,6,2,1,1,6,2 | 1,4,6,2,1,1,6,2 | 1,4,6,2,1,1,6,2 | 1,4,6,2,1,1,6,2 | 1,4,6,2,1,1,6,2 | 1,4,6,2,1,1,6,2 | 1,4,6,2,1,1,6,2 | 1,4,6,2,1,1,6,2 | 1,4,6,2,1,1,6,2 | 1,4,6,2,1,1,6,2 | 1,4,6,2,1,1,6,2 | 1,4,6,2,1,1,6,2 | 1,4,6,2,1,1,6,2 | 1,4,6,2,1,1,6,2 | 1,4,6,2,1,1,6,2 | 1,4,6,2,1,1,6,2 | 1,4,6,2,1,1,6,2 | 1,4,6,2,1,1,6,2 | 1,4,6,2,1,1,6,2 | 1,4,6,2,1,1,6,2 | 1,4,6,2,1,1,6,2 | 1,4,6,2,1,1,6,2 | 1,4,6,2,1,1,6,2 | 1,4,6,2,1,1,6,2 | 1,4,6,2,1,1,6,2 | 1,4,6,2,1,1,6,2 | 1,4,6,2,1,1,6,2 | 1,4,6,2,1,1,6,2 | 1,4,6,2,1,1,6,2 | 1,4,6,2,1,1,6,2 | 1,4,6,2,1,1,6,2 | 1,4,6,2,1,1,6,2 | 1,4,6,2,1,1,6,2 | 1,4,6,2,1,1,6,2 | 1,4,6,2,1,1,6,2 | 1,4,6,2,1,1,6,2 | 1,4,6,2,1,1,6,2 | 1,4,6,2,1,1,6,2 | 1,4,6,2,1,1,6,2 | 1,4,6,2,1,1,6,2 | 1,4,6,2,1,1,6,2 | 1,4,6,2,1,1,6,2 | 1,4,6,2,1,1,6,2 | 1,4,6,2,1,1,6,2 | 1,4,6,2,1,1,6,2 | 1,4,6,2,1,1,6,2 | 1,4,6,2,1,1,6,2 | 1,4,6,2,1,1,6,2 | 1,4,6,2,1,1,6,2 | 1,4,6,2,1,1,6,2 | 1,4,6,2,1,1,6,2 | 1,4,6,2,1,1,6,2 | 1,4,6,2,1,1,6,2 | 1,4,6,2,1,1,6,2 | 1,4,6,2,1,1,6,2 | 1,4,6,2,1,1,6,2 | 1,4,6,2,1,1,6,2 | 1,4,6,2,1,1,6,2 | 1,4,6,2,1,1,6,2 | 1,4,6,2,1,1,6,2 | 1,4,6,2,1,1,6,2 | 1,4,6,2,1,1,6,2 | 1,4,6,2,1,1,6,2 | 1,4,6,2,1,1,6,2 | 1,4,6,2,1,1,6,2 | 1,4,6,2,1,1,6,2 | 1,4,6,2,1,1,6,2 | 1,4,6,2,1,1,6,2 | 1,4,6,2,1,1,6,2 | 1,4,6,2,1,1,6,2 | 1,4,6,2,1,1,6,2 | 1,4,6,2,1,1,6,2 | 1,4,6,2,1,1,6,2 | 1,4,6,2,1,1,6,2 | 1,4,6,2,1,1,6,2 | 1,4,6,2,1,1,6,2 | 1,4,6,2,1,1,6,2 | 1,4,6,2,1,1,6,2 | 1,4,6,2,1,1,6,2 | 1,4,6,2,1,1,6,2 | 1,4,6,2,1,1,6,2 | 1,4,6,2,1,1,6,2 | 1,4,6,2,1,1,6,2 | 1,4,6,2,1,1,6,2 | 1,4,6,2,1,1,6,2 | 1,4,6,2,1,1,6,2 | 1,4,6,2,1,1,6,2 | 1,4,6,2,1,1,6,2 | 1,4,6,2,1,1,6,2 | 1,4,6,2,1,1,6,2 | 1,4,6,2,1,1,6,2 | 1,4,6,2,1,1,6,2 | 1,4,6,2,1,1,6,2 | 1,4,6,2,1,1,6,2 | 1,4,6,2,1,1,6,2 | 1,4,6,2,1,1,6,2 | 1,4,6,2,1,1,6,2 | 1,4,6,2,1,1,6,2 | 1,4,6,2,1,1,6,2 | 1,4,6,2,1,1,6,2 | 1,4,6,2,1,1,6,2 | 1,4,6,2,1,1,6,2 | 1,4,6,2,1,1,6,2 | 1,4,6,2,1,1,6,2 | 1,4,6,2,1,1,6,2 | 1,4,6,2,1,1,6,2 | 1,4,6,2,1,1,6,2 | 1,4,6,2,1,1,6,2 | 1,4,6,2,1,1,6,2 | 1,4,6,2,1,1,6,2 | 1,4,6,2,1,1,6,2 | 1,4,6,2,1,1,6,2 | 1,4,6,2,1,1,6,2 | 1,4,6,2,1,1,6,2 | 1,4,6,2,1,1,6,2 | 1,4,6,2,1,1,6,2 | 1,4,6,2,1,1,6,2 | 1,4,6,2,1,1,6,2 | 1,4,6,2,1,1,6,2 | 1,4,6,2,1,1,6,2 | 1,4,6,2,1,1,6,2 | 1,4,6,2,1,1,6,2 | 1,4,6,2,1,1,6,2 | 1,4,6,2,1,1,6,2 | 1,4,6,2,1,1,6,2 | 1,4,6,2,1,1,6,2 | 1,4,6,2,1,1,6,2 | 1,4,6,2,1,1,6,2 | 1,4,6,2,1,1,6,2 | 1,4,6,2,1,1,6,2 | 1,4,6,2,1,1,6,2 | 1,4,6,2,1,1,6,2 | 1,4,6,2,1,1,6,2 | 1,4,6,2,1,1,6,2 | 1,4,6,2,1,1,6,2 | 1,4,6,2,1,1,6,2 | 1,4,6,2,1,1,6,2 | 1,4,6,2,1,1,6,2 | 1,4,6,2,1,1,6,2 | 1,4,6,2,1,1,6,2 |];

