Code/People_data.txt
numPeople = [26,26,26,26,26,30,30,30,30,26,29,29,29,29,32,32,46,35
,35,41,42,42,44,35,35,35,35,41,38,52,52,59,44,44,54,51
,51,51,51,51,54,65,62,74,83,93,84,88,85,95,95,105,105,108
,108,108,105,105,105,115,125,125,125,125,125,124,124,124,124,119,119,127
,135,154,154,154,146,146,144,153,152,152,152,152,161,161,164,164,164,164
,164,164,164,164,164,165,165,154,154,162,162,162,162,162,162,162,162,162
,163,162,162,162,167,164,167,164,164,164,158,160,160,155,158,158,158,154
,156,156,156,156,156,156,156,163,163,163,162,147,161,157,157,157,148,162
,148,148,135,139,136,125,125,125,125,117,122,121,109,109,109,109,98,98
,98,89,89,89,89,89,89,89,89,89,89,89,89,89,89,89,89,89
,89,89,89,89,89,89,89,89,89,89,89,89,89,89,89,89,89,89
,89,89,91,91,91,91,91,40,40,40,40,40,40,40,40,40,40,40
,25,25,25,25,25,25,25,25,25,25,25,25,25,25,25,25,25,25
,25,25,25,25,25,25,25,25,25,25,25,25,25,25,25,25,25,25
,25,25,25,25,25,25,25,25,25,25,25,25,25,25,25,25,25,25
,25,25,25,25,25,25,25,25,25,25,25,25,25,25,25,25,25,25
,25,25,25,25,25,25,25,25,25,25,25,25,25,25,25,25,25,25
,25,25,25,25,25,25,25,25,25,25,25,25,25,25,25,25,25,25
,25,25,25,25,25,25,25,25,25,25,25,25,25,25,25,25,25,25
,25,25,25,25,25,25,25,25,25,25,25,25,25,25,25,25,25,25
,25,25,25,25,25,25,25,25,25,25];

numPhysicalWorkers = [14.5,14.5,14.5,14.5,14.5,14.5,14.5,14.5,14.5,14.5,16.5,16.5,16.5,16.5
,18.5,18.5,20.5,20.5,20.5,20.5,20.5,20.5,20.5,20.5,20.5,20.5,20.5,20.5
,20.5,20.5,20.5,23.5,23.5,22.5,29.,28.,28.,28.,28.,28.,28.,33.
,33.,37.5,37.5,38.,37.,37.,37.,40.,40.,41.,41.,41.,41.,41.
,41.,41.,41.,45.,46.5,46.5,46.5,46.5,46.5,46.5,45.5,45.5,45.5,45.5
,43.5,44.,44.,53.5,53.5,53.5,53.5,53.5,53.5,56.,56.,55.,55.,55.
,58.5,58.5,58.5,58.5,58.5,58.5,58.5,58.5,58.5,58.5,58.5,58.5,58.5,58.5
,54.,56.5,56.5,56.5,56.5,56.5,56.5,56.5,56.5,56.5,56.5,56.5,56.5,56.5
,57.5,57.5,57.5,57.5,57.5,57.5,57.5,54.,54.,54.,53.,53.,53.,53.
,51.5,51.5,51.5,51.5,51.5,51.5,55.,50.5,50.5,50.5,50.5,50.5,47.,47.
,47.,47.,47.,46.,46.,46.,46.,42.,42.,39.,33.5,33.5,33.5,33.5
,32.,32.,31.,28.,28.,28.,28.,28.,28.,28.,21.,21.,21.,21.
,21.,21.,21.,21.,21.,21.,21.,21.,21.,21.,21.,21.,21.,21.
,21.,21.,21.,21.,21.,21.,21.,21.,21.,21.,21.,21.,21.,21.
,21.,21.,21.,21.,21.5,21.5,21.5,21.5,21.5,21.5,14.5,14.5,14.5,14.5
,14.5,14.5,14.5,14.5,14.5,14.5,14.5,13.,13.,13.,13.,13.,13.,13.
,13.,13.,13.,13.,13.,13.,13.,13.,13.,13.,13.,13.,13.,13.
,13.,13.,13.,13.,13.,13.,13.,13.,13.,13.,13.,13.,13.,13.
,13.,13.,13.,13.,13.,13.,13.,13.,13.,13.,13.,13.,13.,13.
,13.,13.,13.,13.,13.,13.,13.,13.,13.,13.,13.,13.,13.,13.
,13.,13.,13.,13.,13.,13.,13.,13.,13.,13.,13.,13.,13.,13.
,13.,13.,13.,13.,13.,13.,13.,13.,13.,13.,13.,13.,13.,13.
,13.,13.,13.,13.,13.,13.,13.,13.,13.,13.,13.,13.,13.,13.
,13.,13.,13.,13.,13.,13.,13.,13.,13.,13.,13.,13.,13.,13.
,13.,13.,13.,13.,13.,13.,13.,13.,13.,13.,13.,13.,13.,13.
,13.,13.,13.,13.,13.,13.,13.,13.,13.,13.,13.,13.,13.,13.
,13.,13.,13.,13.,13.,13.];

numMen = [23,23,23,23,23,27,27,27,27,27,25,25,25,25,27,27,41,41
,30,36,42,36,43,37,30,30,30,36,36,46,46,50,50,36,42,41
,38,38,38,38,40,47,47,52,60,71,71,65,65,72,72,81,81,84
,84,84,84,81,81,86,96,96,96,96,96,96,95,95,95,100,94,101
,108,126,126,126,126,119,119,128,128,127,127,127,136,135,137,137,137,137
,137,137,137,137,137,138,138,138,131,136,136,136,136,136,136,136,136,136
,139,139,136,136,140,140,140,140,137,137,137,132,132,132,132,132,132,132
,128,128,128,128,128,128,132,134,134,134,134,136,145,133,129,135,129,135
,135,121,121,112,112,109,100,100,100,100,100,100,99,90,90,90,90,80
,80,80,75,75,75,75,75,75,75,75,75,75,75,75,75,75,75,75
,75,75,75,75,75,75,75,75,75,75,75,75,75,75,75,75,75,75
,75,75,76,76,76,76,76,76,30,30,30,30,30,30,30,30,30,30
,30,19,19,19,19,19,19,19,19,19,19,19,19,19,19,19,19,19
,19,19,19,19,19,19,19,19,19,19,19,19,19,19,19,19,19,19
,19,19,19,19,19,19,19,19,19,19,19,19,19,19,19,19,19,19
,19,19,19,19,19,19,19,19,19,19,19,19,19,19,19,19,19,19
,19,19,19,19,19,19,19,19,19,19,19,19,19,19,19,19,19,19
,19,19,19,19,19,19,19,19,19,19,19,19,19,19,19,19,19,19
,19,19,19,19,19,19,19,19,19,19,19,19,19,19,19,19,19,19
,19,19,19,19,19,19,19,19,19,19,19,19,19,19,19,19,19,19
,19,19,19,19,19,19,19,19,19,19];

numRefusals = [| 2,4,3,4,1,1,3,0 | 2,4,3,4,1,1,3,0 | 2,4,3,4,1,1,3,0 | 2,4,3,4,1,1,3,0 | 2,4,3,4,1,1,3,0 | 2,1,3,4,3,1,4,3 | 2,1,3,4,3,1,4,3 | 2,1,3,4,3,1,4,3 | 2,1,3,4,3,1,4,3 | 3,1,0,1,1,1,2,1 | 1,0,2,3,4,1,1,6 | 1,0,2,3,4,1,1,6 | 1,0,2,3,4,1,1,6 | 1,0,2,3,4,1,1,6 | 2,2,0,0,4,5,4,4 | 2,2,0,0,4,5,4,4 | 1,1,9,4,2,0,3,3 | 3,4,2,0,2,2,1,4 | 3,4,2,0,2,2,1,4 | 3,1,1,0,4,1,0,2 | 0,2,1,2,2,0,2,3 | 0,2,1,2,2,0,2,3 | 4,0,11,1,1,7,1,3 | 0,6,3,1,2,5,3,2 | 0,6,3,1,2,5,3,2 | 0,6,3,1,2,5,3,2 | 0,6,3,1,2,5,3,2 | 7,3,6,2,4,1,0,3 | 3,2,4,0,10,6,4,5 | 5,8,11,6,8,5,16,3 | 5,8,11,6,8,5,16,3 | 3,1,2,13,9,10,14,2 | 1,2,1,0,5,7,7,8 | 1,2,1,0,5,7,7,8 | 1,0,5,5,1,12,3,6 | 6,10,5,4,2,5,16,3 | 6,10,5,4,2,5,16,3 | 6,10,5,4,2,5,16,3 | 6,10,5,4,2,5,16,3 | 6,10,5,4,2,5,16,3 | 1,2,6,1,4,9,5,2 | 2,5,7,15,4,4,5,3 | 3,0,15,0,3,1,3,2 | 1,5,9,12,8,8,11,3 | 3,7,7,8,1,3,5,14 | 3,2,19,8,17,0,6,7 | 3,6,6,3,0,13,8,4 | 14,10,4,2,6,9,4,7 | 9,6,12,5,6,7,5,10 | 2,2,6,11,2,4,3,3 | 2,2,6,11,2,4,3,3 | 14,10,13,6,8,13,26,0 | 14,10,13,6,8,13,26,0 | 11,12,6,11,2,7,17,6 | 11,12,6,11,2,7,17,6 | 11,12,6,11,2,7,17,6 | 18,8,17,11,2,17,8,3 | 18,8,17,11,2,17,8,3 | 18,8,17,11,2,17,8,3 | 7,0,4,9,15,14,11,5 | 12,2,15,2,14,15,21,4 | 12,2,15,2,14,15,21,4 | 12,2,15,2,14,15,21,4 | 12,2,15,2,14,15,21,4 | 12,2,15,2,14,15,21,4 | 8,3,11,26,2,8,24,23 | 8,3,11,26,2,8,24,23 | 8,3,11,26,2,8,24,23 | 8,3,11,26,2,8,24,23 | 27,14,5,2,3,0,10,5 | 27,14,5,2,3,0,10,5 | 6,2,12,0,11,2,10,22 | 5,5,19,6,2,5,18,2 | 8,3,2,31,12,34,27,6 | 8,3,2,31,12,34,27,6 | 8,3,2,31,12,34,27,6 | 10,11,15,4,21,32,38,20 | 10,11,15,4,21,32,38,20 | 7,18,14,1,15,8,8,22 | 12,3,34,17,20,13,26,22 | 13,6,13,17,18,3,13,14 | 13,6,13,17,18,3,13,14 | 13,6,13,17,18,3,13,14 | 13,6,13,17,18,3,13,14 | 19,5,26,12,16,6,5,10 | 19,5,26,12,16,6,5,10 | 2,8,25,11,5,0,10,27 | 2,8,25,11,5,0,10,27 | 2,8,25,11,5,0,10,27 | 2,8,25,11,5,0,10,27 | 2,8,25,11,5,0,10,27 | 2,8,25,11,5,0,10,27 | 2,8,25,11,5,0,10,27 | 2,8,25,11,5,0,10,27 | 2,8,25,11,5,0,10,27 | 15,1,3,16,11,5,21,4 | 15,1,3,16,11,5,21,4 | 6,15,33,21,4,8,12,38 | 6,15,33,21,4,8,12,38 | 8,2,12,11,32,1,23,3 | 8,2,12,11,32,1,23,3 | 8,2,12,11,32,1,23,3 | 8,2,12,11,32,1,23,3 | 8,2,12,11,32,1,23,3 | 8,2,12,11,32,1,23,3 | 8,2,12,11,32,1,23,3 | 8,2,12,11,32,1,23,3 | 8,2,12,11,32,1,23,3 | 10,4,3,17,5,19,4,11 | 22,10,25,21,15,20,9,6 | 22,10,25,21,15,20,9,6 | 22,10,25,21,15,20,9,6 | 2,4,2,15,10,19,9,27 | 18,18,2,16,41,35,0,23 | 1,39,9,6,13,2,4,15 | 2,5,9,16,17,31,36,1 | 2,5,9,16,17,31,36,1 | 2,5,9,16,17,31,36,1 | 0,27,21,26,10,6,9,11 | 18,24,7,23,13,10,26,28 | 18,24,7,23,13,10,26,28 | 7,15,8,10,28,4,20,19 | 24,13,3,13,4,27,28,6 | 24,13,3,13,4,27,28,6 | 24,13,3,13,4,27,28,6 | 5,4,32,22,3,32,11,29 | 29,4,11,13,14,34,24,1 | 29,4,11,13,14,34,24,1 | 29,4,11,13,14,34,24,1 | 29,4,11,13,14,34,24,1 | 29,4,11,13,14,34,24,1 | 29,4,11,13,14,34,24,1 | 29,4,11,13,14,34,24,1 | 15,7,3,5,1,4,10,23 | 15,7,3,5,1,4,10,23 | 15,7,3,5,1,4,10,23 | 19,14,3,21,2,24,23,3 | 16,10,7,10,2,18,15,10 | 9,21,11,19,9,16,31,24 | 24,23,1,16,6,4,16,11 | 24,23,1,16,6,4,16,11 | 24,23,1,16,6,4,16,11 | 2,12,8,5,1,2,3,11 | 25,9,5,25,15,17,22,7 | 22,14,11,16,3,2,8,13 | 22,14,11,16,3,2,8,13 | 39,12,19,19,2,4,14,4 | 3,19,21,4,9,11,7,10 | 5,19,5,14,9,4,1,23 | 20,4,5,5,2,14,10,1 | 20,4,5,5,2,14,10,1 | 20,4,5,5,2,14,10,1 | 20,4,5,5,2,14,10,1 | 1,11,3,1,0,19,18,25 | 0,2,1,9,12,22,3,14 | 21,9,11,3,9,19,2,3 | 1,12,16,6,4,16,11,6 | 1,12,16,6,4,16,11,6 | 1,12,16,6,4,16,11,6 | 1,12,16,6,4,16,11,6 | 1,19,2,28,7,11,8,0 | 1,19,2,28,7,11,8,0 | 1,19,2,28,7,11,8,0 | 6,3,9,11,10,1,2,4 | 6,3,9,11,10,1,2,4 | 6,3,9,11,10,1,2,4 | 6,3,9,11,10,1,2,4 | 6,3,9,11,10,1,2,4 | 6,3,9,11,10,1,2,4 | 6,3,9,11,10,1,2,4 | 6,3,9,11,10,1,2,4 | 6,3,9,11,10,1,2,4 | 6,3,9,11,10,1,2,4 | 6,3,9,11,10,1,2,4 | 6,3,9,11,10,1,2,4 | 6,3,9,11,10,1,2,4 | 6,3,9,11,10,1,2,4 | 6,3,9,11,10,1,2,4 | 6,3,9,11,10,1,2,4 | 6,3,9,11,10,1,2,4 | 6,3,9,11,10,1,2,4 | 6,3,9,11,10,1,2,4 | 6,3,9,11,10,1,2,4 | 6,3,9,11,10,1,2,4 | 6,3,9,11,10,1,2,4 | 6,3,9,11,10,1,2,4 | 6,3,9,11,10,1,2,4 | 6,3,9,11,10,1,2,4 | 6,3,9,11,10,1,2,4 | 6,3,9,11,10,1,2,4 | 6,3,9,11,10,1,2,4 | 6,3,9,11,10,1,2,4 | 6,3,9,11,10,1,2,4 | 6,3,9,11,10,1,2,4 | 6,3,9,11,10,1,2,4 | 6,3,9,11,10,1,2,4 | 6,3,9,11,10,1,2,4 | 6,3,9,11,10,1,2,4 | 6,3,9,11,10,1,2,4 | 6,3,9,11,10,1,2,4 | 6,10,11,1,13,1,12,7 | 6,10,11,1,13,1,12,7 | 6,10,11,1,13,1,12,7 | 6,10,11,1,13,1,12,7 | 6,10,11,1,13,1,12,7 | 4,3,3,1,2,3,8,3 | 4,3,3,1,2,3,8,3 | 4,3,3,1,2,3,8,3 | 4,3,3,1,2,3,8,3 | 4,3,3,1,2,3,8,3 | 4,3,3,1,2,3,8,3 | 4,3,3,1,2,3,8,3 | 4,3,3,1,2,3,8,3 | 4,3,3,1,2,3,8,3 | 4,3,3,1,2,3,8,3 | 4,3,3,1,2,3,8,3 | 3,1,4,2,0,0,2,1 | 3,1,4,2,0,0,2,1 | 3,1,4,2,0,0,2,1 | 3,1,4,2,0,0,2,1 | 3,1,4,2,0,0,2,1 | 3,1,4,2,0,0,2,1 | 3,1,4,2,0,0,2,1 | 3,1,4,2,0,0,2,1 | 3,1,4,2,0,0,2,1 | 3,1,4,2,0,0,2,1 | 3,1,4,2,0,0,2,1 | 3,1,4,2,0,0,2,1 | 3,1,4,2,0,0,2,1 | 3,1,4,2,0,0,2,1 | 3,1,4,2,0,0,2,1 | 3,1,4,2,0,0,2,1 | 3,1,4,2,0,0,2,1 | 3,1,4,2,0,0,2,1 | 3,1,4,2,0,0,2,1 | 3,1,4,2,0,0,2,1 | 3,1,4,2,0,0,2,1 | 3,1,4,2,0,0,2,1 | 3,1,4,2,0,0,2,1 | 3,1,4,2,0,0,2,1 | 3,1,4,2,0,0,2,1 | 3,1,4,2,0,0,2,1 | 3,1,4,2,0,0,2,1 | 3,1,4,2,0,0,2,1 | 3,1,4,2,0,0,2,1 | 3,1,4,2,0,0,2,1 | 3,1,4,2,0,0,2,1 | 3,1,4,2,0,0,2,1 | 3,1,4,2,0,0,2,1 | 3,1,4,2,0,0,2,1 | 3,1,4,2,0,0,2,1 | 3,1,4,2,0,0,2,1 | 3,1,4,2,0,0,2,1 | 3,1,4,2,0,0,2,1 | 3,1,4,2,0,0,2,1 | 3,1,4,2,0,0,2,1 | 3,1,4,2,0,0,2,1 | 3,1,4,2,0,0,2,1 | 3,1,4,2,0,0,2,1 | 3,1,4,2,0,0,2,1 | 3,1,4,2,0,0,2,1 | 3,1,4,2,0,0,2,1 | 3,1,4,2,0,0,2,1 | 3,1,4,2,0,0,2,1 | 3,1,4,2,0,0,2,1 | 3,1,4,2,0,0,2,1 | 3,1,4,2,0,0,2,1 | 3,1,4,2,0,0,2,1 | 3,1,4,2,0,0,2,1 | 3,1,4,2,0,0,2,1 | 3,1,4,2,0,0,2,1 | 3,1,4,2,0,0,2,1 | 3,1,4,2,0,0,2,1 | 3,1,4,2,0,0,2,1 | 3,1,4,2,0,0,2,1 | 3,1,4,2,0,0,2,1 | 3,1,4,2,0,0,2,1 | 3,1,4,2,0,0,2,1 | 3,1,4,2,0,0,2,1 | 3,1,4,2,0,0,2,1 | 3,1,4,2,0,0,2,1 | 3,1,4,2,0,0,2,1 | 3,1,4,2,0,0,2,1 | 3,1,4,2,0,0,2,1 | 3,1,4,2,0,0,2,1 | 3,1,4,2,0,0,2,1 | 3,1,4,2,0,0,2,1 | 3,1,4,2,0,0,2,1 | 3,1,4,2,0,0,2,1 | 3,1,4,2,0,0,2,1 | 3,1,4,2,0,0,2,1 | 3,1,4,2,0,0,2,1 | 3,1,4,2,0,0,2,1 | 3,1,4,2,0,0,2,1 | 3,1,4,2,0,0,2,1 | 3,1,4,2,0,0,2,1 | 3,1,4,2,0,0,2,1 | 3,1,4,2,0,0,2,1 | 3,1,4,2,0,0,2,1 | 3,1,4,2,0,0,2,1 | 3,1,4,2,0,0,2,1 | 3,1,4,2,0,0,2,1 | 3,1,4,2,0,0,2,1 | 3,1,4,2,0,0,2,1 | 3,1,4,2,0,0,2,1 | 3,1,4,2,0,0,2,1 | 3,1,4,2,0,0,2,1 | 3,1,4,2,0,0,2,1 | 3,1,4,2,0,0,2,1 | 3,1,4,2,0,0,2,1 | 3,1,4,2,0,0,2,1 | 3,1,4,2,0,0,2,1 | 3,1,4,2,0,0,2,1 | 3,1,4,2,0,0,2,1 | 3,1,4,2,0,0,2,1 | 3,1,4,2,0,0,2,1 | 3,1,4,2,0,0,2,1 | 3,1,4,2,0,0,2,1 | 3,1,4,2,0,0,2,1 | 3,1,4,2,0,0,2,1 | 3,1,4,2,0,0,2,1 | 3,1,4,2,0,0,2,1 | 3,1,4,2,0,0,2,1 | 3,1,4,2,0,0,2,1 | 3,1,4,2,0,0,2,1 | 3,1,4,2,0,0,2,1 | 3,1,4,2,0,0,2,1 | 3,1,4,2,0,0,2,1 | 3,1,4,2,0,0,2,1 | 3,1,4,2,0,0,2,1 | 3,1,4,2,0,0,2,1 | 3,1,4,2,0,0,2,1 | 3,1,4,2,0,0,2,1 | 3,1,4,2,0,0,2,1 | 3,1,4,2,0,0,2,1 | 3,1,4,2,0,0,2,1 | 3,1,4,2,0,0,2,1 | 3,1,4,2,0,0,2,1 | 3,1,4,2,0,0,2,1 | 3,1,4,2,0,0,2,1 | 3,1,4,2,0,0,2,1 | 3,1,4,2,0,0,2,1 | 3,1,4,2,0,0,2,1 | 3,1,4,2,0,0,2,1 | 3,1,4,2,0,0,2,1 | 3,1,4,2,0,0,2,1 | 3,1,4,2,0,0,2,1 | 3,1,4,2,0,0,2,1 | 3,1,4,2,0,0,2,1 | 3,1,4,2,0,0,2,1 | 3,1,4,2,0,0,2,1 | 3,1,4,2,0,0,2,1 | 3,1,4,2,0,0,2,1 | 3,1,4,2,0,0,2,1 | 3,1,4,2,0,0,2,1 | 3,1,4,2,0,0,2,1 | 3,1,4,2,0,0,2,1 | 3,1,4,2,0,0,2,1 | 3,1,4,2,0,0,2,1 | 3,1,4,2,0,0,2,1 | 3,1,4,2,0,0,2,1 | 3,1,4,2,0,0,2,1 | 3,1,4,2,0,0,2,1 | 3,1,4,2,0,0,2,1 | 3,1,4,2,0,0,2,1 | 3,1,4,2,0,0,2,1 | 3,1,4,2,0,0,2,1 | 3,1,4,2,0,0,2,1 | 3,1,4,2,0,0,2,1 | 3,1,4,2,0,0,2,1 |];

